%
% Generated by 
%   kidney_exchange.pl 20 fz
%  
%
num_people = 20;
compatible = 
[ 
{6,11},
{3},
{6,10,11},
{6,8,12,20},
{9,12,15},
{1,12},
{6,9,16},
{18},
{2,12,16},
{17},
{2},
{16},
{6,11,20},
{1,11},
{9,20},
{8},
{20},
{1,16},
{5},
{2,9,15},
];

